1 10
2 1
3 4
4 4
5 1
6 7
7 10
8 1
9 1
10 3
11 5
12 3
13 3
14 3
15 3
16 9
17 7
18 10
19 6
20 2
21 1
22 10
23 7
24 9
25 1
26 3
27 10
28 5
29 1
30 1
31 10
32 5
33 8
34 10
35 1
36 4
37 1
38 4
39 3
40 6
41 7
42 2
43 1
44 6
45 2
46 6
47 4
48 7
49 10
50 1
51 1
52 10
53 6
54 4
55 8
56 8
57 3
58 2
59 7
60 10
61 1
62 5
63 1
64 2
65 6
66 10
67 10
68 8
69 8
70 10
71 3
72 1
73 5
74 10
75 10
76 5
77 10
78 1
79 7
80 2
81 4
82 9
83 10
84 1
85 3
86 9
87 7
88 10
89 3
90 6
91 5
92 2
93 5
94 9
95 3
96 1
97 1
98 8
99 4
100 3
101 9
102 3
103 3
104 3
105 3
106 3
107 6
108 5
109 3
110 7
111 4
112 1
113 6
114 10
115 5
116 7
117 2
118 4
119 1
120 8
121 1
122 6
123 10
124 4
125 3
126 8
127 1
128 1
129 2
130 6
131 7
132 4
133 8
134 1
135 9
136 8
137 4
138 4
139 4
140 4
141 10
142 2
143 9
144 1
145 1
146 6
147 7
148 4
149 8
150 1
151 10
152 7
153 8
154 10
155 1
156 1
157 3
158 5
159 10
160 8
161 8
162 1
163 5
164 9
165 6
166 4
167 6
168 4
169 1
170 9
171 1
172 3
173 10
174 8
175 5
176 7
177 1
178 10
179 6
180 3
181 7
182 4
183 10
184 7
